es_decr_min = int_search([es[4],es[11],es[9],es[10],es[5],es[6],es[13],es[15],es[2],es[28],es[7],es[17],es[18],es[14],es[25],es[22],es[3],es[27],es[24],es[23],es[8],es[16],es[21],es[19],es[12],es[1],es[29],es[26],es[20],vs[7],vs[12],vs[13],vs[9],vs[14],vs[5],vs[3],vs[8],vs[11],vs[1],vs[17],vs[15],vs[2],vs[19],vs[21],vs[16],vs[6],vs[20],vs[18],vs[10],vs[4]], input_order, indomain_min, complete);
nbV = 21;
nbE = 29;
nbT = 10;
adj = [|false,true,true,false,false,false,false,false,false,false,false,false,false,false,false,false,false,false,false,false,false,false,false,false,false,false,false,false,false
|false,false,true,false,false,false,false,false,false,false,false,false,false,false,false,false,false,false,false,false,false,false,false,false,false,false,false,false,false
|false,false,false,false,false,false,false,false,false,false,false,false,false,false,false,false,false,false,false,false,false,false,false,false,false,false,false,true,false
|false,false,false,false,false,false,false,false,false,false,false,false,false,false,false,false,false,false,false,false,false,false,false,false,false,false,false,false,true
|false,false,false,false,false,false,true,true,true,true,false,false,false,false,false,false,false,false,false,false,false,false,false,false,false,false,false,false,false
|false,false,false,false,false,false,false,false,false,false,false,false,false,false,false,false,false,false,false,false,false,false,false,true,true,true,false,false,false
|false,false,false,true,true,true,false,false,false,true,false,false,false,false,false,false,false,false,false,false,false,false,false,false,false,false,false,false,false
|false,false,false,false,false,false,false,false,false,false,false,false,false,true,true,false,false,false,false,false,false,false,false,false,false,false,false,false,false
|false,false,false,false,false,false,false,false,true,false,false,false,false,false,false,true,false,false,false,false,false,false,false,false,false,false,false,false,false
|false,false,false,false,false,false,false,false,false,false,false,false,false,false,false,false,false,false,true,true,true,true,false,false,false,false,false,false,false
|true,true,false,false,false,true,false,false,false,false,false,false,false,false,false,false,false,false,false,false,false,false,false,false,false,false,false,false,false
|true,false,false,true,false,false,false,false,false,false,false,false,false,false,true,false,false,false,false,false,false,false,false,false,false,false,false,false,false
|false,false,false,false,true,false,true,false,false,false,true,false,false,false,false,false,false,false,false,false,false,false,false,false,false,false,false,false,false
|false,false,false,false,false,false,false,false,false,false,true,true,false,false,false,false,false,false,false,false,false,true,false,false,false,false,false,false,false
|false,false,false,false,false,false,false,false,false,false,false,true,true,true,false,false,false,false,false,false,false,false,false,false,false,false,false,false,false
|false,false,false,false,false,false,false,true,false,false,false,false,false,false,false,true,true,false,false,false,false,false,false,false,false,false,false,false,false
|false,false,false,false,false,false,false,false,false,false,false,false,false,false,false,false,true,true,false,false,false,false,false,false,true,false,false,false,false
|false,false,false,false,false,false,false,false,false,false,false,false,false,false,false,false,false,true,false,false,true,false,false,false,false,true,false,false,false
|false,false,false,false,false,false,false,false,false,false,false,false,true,false,false,false,false,false,true,false,false,false,true,false,false,false,false,false,false
|false,false,false,false,false,false,false,false,false,false,false,false,false,false,false,false,false,false,false,true,false,false,false,true,false,false,true,false,false
|false,false,false,false,false,false,false,false,false,false,false,false,false,false,false,false,false,false,false,false,false,false,true,false,false,false,true,true,true
|];
endnodes = [|false,false,false,false,false,false,false,false,false,false,true,true,false,false,false,false,false,false,false,false,false
|true,false,false,false,false,false,false,false,false,false,true,false,false,false,false,false,false,false,false,false,false
|true,true,false,false,false,false,false,false,false,false,false,false,false,false,false,false,false,false,false,false,false
|false,false,false,false,false,false,true,false,false,false,false,true,false,false,false,false,false,false,false,false,false
|false,false,false,false,false,false,true,false,false,false,false,false,true,false,false,false,false,false,false,false,false
|false,false,false,false,false,false,true,false,false,false,true,false,false,false,false,false,false,false,false,false,false
|false,false,false,false,true,false,false,false,false,false,false,false,true,false,false,false,false,false,false,false,false
|false,false,false,false,true,false,false,false,false,false,false,false,false,false,false,true,false,false,false,false,false
|false,false,false,false,true,false,false,false,true,false,false,false,false,false,false,false,false,false,false,false,false
|false,false,false,false,true,false,true,false,false,false,false,false,false,false,false,false,false,false,false,false,false
|false,false,false,false,false,false,false,false,false,false,false,false,true,true,false,false,false,false,false,false,false
|false,false,false,false,false,false,false,false,false,false,false,false,false,true,true,false,false,false,false,false,false
|false,false,false,false,false,false,false,false,false,false,false,false,false,false,true,false,false,false,true,false,false
|false,false,false,false,false,false,false,true,false,false,false,false,false,false,true,false,false,false,false,false,false
|false,false,false,false,false,false,false,true,false,false,false,true,false,false,false,false,false,false,false,false,false
|false,false,false,false,false,false,false,false,true,false,false,false,false,false,false,true,false,false,false,false,false
|false,false,false,false,false,false,false,false,false,false,false,false,false,false,false,true,true,false,false,false,false
|false,false,false,false,false,false,false,false,false,false,false,false,false,false,false,false,true,true,false,false,false
|false,false,false,false,false,false,false,false,false,true,false,false,false,false,false,false,false,false,true,false,false
|false,false,false,false,false,false,false,false,false,true,false,false,false,false,false,false,false,false,false,true,false
|false,false,false,false,false,false,false,false,false,true,false,false,false,false,false,false,false,true,false,false,false
|false,false,false,false,false,false,false,false,false,true,false,false,false,true,false,false,false,false,false,false,false
|false,false,false,false,false,false,false,false,false,false,false,false,false,false,false,false,false,false,true,false,true
|false,false,false,false,false,true,false,false,false,false,false,false,false,false,false,false,false,false,false,true,false
|false,false,false,false,false,true,false,false,false,false,false,false,false,false,false,false,true,false,false,false,false
|false,false,false,false,false,true,false,false,false,false,false,false,false,false,false,false,false,true,false,false,false
|false,false,false,false,false,false,false,false,false,false,false,false,false,false,false,false,false,false,false,true,true
|false,false,true,false,false,false,false,false,false,false,false,false,false,false,false,false,false,false,false,false,true
|false,false,false,true,false,false,false,false,false,false,false,false,false,false,false,false,false,false,false,false,true
|];
terminals = {1,2,3,4,5,6,7,8,9,10};
ws = [1825,22563,13861,167218,35452,33872,15531,9198,117269,65040,139687,2660,25023,14546,24325,4542,15339,14705,4041,31,4351,14298,10677,11164,14319,48,13617,22092,642];
cs = [9,11,4,11,7,7,11,3,11,9,11,6,7,11,5,6,8,5,7,6,5,3,4,9,4,7,5,6,3];
ds = [0,2,1,3,2,3,3,1,1,2,2,0,0,0,0,0,0,0,0,0,0];
